c A SAT instance generated from a 3-CNF formula that had 20 clauses and 10 variables
p cnf 10 20
-5 -7 9 0
-10 -1 9 0
-7 -10 -6 0
-6 -7 -10 0
-9 -10 -8 0
6 -1 -4 0
3 -6 -10 0
-7 -9 -6 0
2 -1 -10 0
10 -4 -8 0
-9 -1 6 0
1 2 -6 0
2 10 6 0
-8 2 -6 0
-8 -4 9 0
-5 -9 -1 0
-5 2 -8 0
-1 -3 10 0
4 -1 7 0
7 3 -2 0
